[2026-03-23T14:12:59.228Z] Pipeline "set_exp_2_exp_2_n035_c007_g005" → 2026_03_23_14_12_59_set_exp_2_exp_2_n035_c007_g005_max.sol
Set parameter WLSAccessID
Set parameter WLSSecret
Set parameter LicenseID to value 2792458
Set parameter LogFile to value "gurobi.log"
Using license file /root/gurobi.lic
Academic license 2792458 - for non-commercial use only - registered to an___@studenti.unipg.it

Gurobi Optimizer version 13.0.1 build v13.0.1rc0 (linux64 - "Ubuntu 24.04.4 LTS")
Copyright (c) 2026, Gurobi Optimization, LLC

Warning: Duplicate section found (read 'binary') - Is a variable name equal to an LP file format keyword?
Warning: Duplicate section found (read 'binary') - Is a variable name equal to an LP file format keyword?
Warning: Duplicate section found (read 'binary') - Is a variable name equal to an LP file format keyword?
Warning: Duplicate section found (read 'binary') - Is a variable name equal to an LP file format keyword?
Warning: Duplicate section found (read 'binary') - Is a variable name equal to an LP file format keyword?
Warning: Duplicate section found (read 'binary') - Is a variable name equal to an LP file format keyword?
Warning: Duplicate section found (read 'binary') - Is a variable name equal to an LP file format keyword?
Warning: Duplicate section found (read 'binary') - Is a variable name equal to an LP file format keyword?
Warning: Duplicate section found (read 'binary') - Is a variable name equal to an LP file format keyword?
Warning: Duplicate section found (read 'binary') - Is a variable name equal to an LP file format keyword?
Warning: Further warnings of this type will be omitted.
Read LP format model from file /root/bgw/data/uploads/2026_03_23_14_12_59_set_exp_2_exp_2_n035_c007_g005_max.lp
Reading time = 0.03 seconds
: 14208 rows, 852 columns, 42675 nonzeros

Using Gurobi shared library /opt/gurobi1301/linux64/lib/libgurobi.so.13.0.1

CPU model: AMD EPYC-Genoa Processor, instruction set [SSE2|AVX|AVX2|AVX512]
Thread count: 16 physical cores, 16 logical processors, using up to 16 threads

Academic license 2792458 - for non-commercial use only - registered to an___@studenti.unipg.it
Optimize a model with 14208 rows, 852 columns and 42675 nonzeros (Max)
Model fingerprint: 0xe90d44ac
Model has 7 linear objective coefficients
Variable types: 42 continuous, 810 integer (810 binary)
Coefficient statistics:
  Matrix range     [1e+00, 4e+01]
  Objective range  [1e+00, 1e+00]
  Bounds range     [1e+00, 1e+00]
  RHS range        [1e+00, 4e+01]

Found heuristic solution: objective 7.0000000
Presolve removed 1064 rows and 222 columns
Presolve time: 0.06s
Presolved: 13144 rows, 630 columns, 39944 nonzeros
Variable types: 0 continuous, 630 integer (614 binary)
Found heuristic solution: objective 8.0000000

Root relaxation: objective 2.800000e+01, 766 iterations, 0.06 seconds (0.08 work units)

    Nodes    |    Current Node    |     Objective Bounds      |     Work
 Expl Unexpl |  Obj  Depth IntInf | Incumbent    BestBd   Gap | It/Node Time

     0     0   28.00000    0   53    8.00000   28.00000   250%     -    0s
H    0     0                      15.0000000   28.00000  86.7%     -    0s
H    0     0                      17.0000000   28.00000  64.7%     -    0s
H    0     0                      18.0000000   28.00000  55.6%     -    0s
H    0     0                      19.0000000   28.00000  47.4%     -    0s
H    0     0                      20.0000000   28.00000  40.0%     -    0s
     0     0   28.00000    0   57   20.00000   28.00000  40.0%     -    0s
     0     0   28.00000    0   45   20.00000   28.00000  40.0%     -    0s
     0     0   28.00000    0   39   20.00000   28.00000  40.0%     -    0s
     0     0   28.00000    0   36   20.00000   28.00000  40.0%     -    0s
     0     0   28.00000    0   36   20.00000   28.00000  40.0%     -    0s
     0     0   28.00000    0   49   20.00000   28.00000  40.0%     -    0s
     0     0   28.00000    0   38   20.00000   28.00000  40.0%     -    0s
     0     0   28.00000    0   40   20.00000   28.00000  40.0%     -    0s
     0     0   28.00000    0   36   20.00000   28.00000  40.0%     -    0s
     0     0   28.00000    0   36   20.00000   28.00000  40.0%     -    0s
     0     0   28.00000    0   38   20.00000   28.00000  40.0%     -    0s
     0     0   28.00000    0   48   20.00000   28.00000  40.0%     -    0s
     0     0   28.00000    0   40   20.00000   28.00000  40.0%     -    0s
     0     0   28.00000    0   38   20.00000   28.00000  40.0%     -    0s
     0     0   28.00000    0   38   20.00000   28.00000  40.0%     -    0s
     0     0   28.00000    0   36   20.00000   28.00000  40.0%     -    0s
     0     0   28.00000    0   36   20.00000   28.00000  40.0%     -    0s
     0     0   28.00000    0   36   20.00000   28.00000  40.0%     -    0s
     0     2   28.00000    0   36   20.00000   28.00000  40.0%     -    1s

Cutting planes:
  Cover: 5
  MIR: 9
  StrongCG: 2
  Inf proof: 25
  Zero half: 8

Explored 1932 nodes (265458 simplex iterations) in 4.69 seconds (7.89 work units)
Thread count was 16 (of 16 available processors)

Solution count 7: 20 19 18 ... 7

Optimal solution found (tolerance 1.00e-04)
Best objective 2.000000000000e+01, best bound 2.000000000000e+01, gap 0.0000%

Wrote result file '/root/bgw/data/results/2026_03_23_14_12_59_set_exp_2_exp_2_n035_c007_g005_max.sol'

